NAME : tsp35_4.180.tour
COMMENT : Length = 180
COMMENT : Found by LKH [Keld Helsgaun]
TYPE : TOUR
DIMENSION : 35
TOUR_SECTION
1
15
30
7
31
17
12
5
24
27
6
19
16
2
9
3
18
34
22
35
11
13
21
23
26
32
10
25
29
8
28
4
33
14
20
-1
EOF
